NAME : ulysses22.tsp.7013.tour
COMMENT : Length = 7013
COMMENT : Found by LKH-3 [Keld Helsgaun] Sat Jan 10 17:14:30 2026
TYPE : TOUR
DIMENSION : 22
TOUR_SECTION
1
8
18
4
22
17
2
3
16
21
20
19
10
9
11
5
15
6
7
12
13
14
-1
EOF
